          16
          20
           1           4          14
           2           5           2
           3           2           2
           4           9           7
           5           5           5
           6           2           5
           7           7           7
           8           3           5
           9           6           5
          10           3           2
          11           6           2
          12           4           6
          13           6           3
          14          10           3
          15           6           3
          16          10           3
